36861.4
199 96 137 7 194 151 110 51 82 190 71 116 63 176 162 91 22 18 101 74 164 39 68 76 141 126 179 54 128 88 153 60 168 15 155 109 102 73 177 85 87 21 140 138 36 80 45 58 165 114 173 188 180 53 69 33 123 35 20 139 175 119 98 65 131 32 70 11 59 41 97 27 111 31 158 169 120 144 0 67 55 103 19 3 196 135 134 4 174 13 48 89 16 52 130 178 184 112 56 37 84 182 121 34 147 181 8 90 125 1 81 86 108 192 43 64 26 40 172 107 142 23 149 113 94 191 193 143 46 25 117 145 92 78 166 171 154 197 157 10 66 75 83 186 2 12 152 72 61 62 29 170 28 17 38 115 132 127 77 156 30 24 9 150 6 5 50 161 14 95 195 57 163 122 148 44 104 100 129 42 159 167 124 187 105 118 198 79 160 136 146 133 189 47 99 185 183 93 49 106 
